(set-logic HORN)
(declare-fun state (Int (Array Int Int) (Array Int Int) (Array Int Int) (Array Int Int) Int Int (Array Int Int) (Array Int Int) Int Int Int Int Int Int Int Int Int Int Int Int Int Int Int Int Int Int Int Int Int Int Int Bool Bool Bool Bool Bool (Array Int Int)) Bool)
(assert (forall ((|A_21| Int) (|H1_11| (Array Int Int)) (|C_21| (Array Int Int)) (|D_21| (Array Int Int)) (|E_21| (Array Int Int)) (|F_21| Int) (|G_21| Int) (|H_21| (Array Int Int)) (|I_21| (Array Int Int)) (|J_21| Int) (|K_21| Int) (|L_21| Int) (|I1_6| Int) (|N_21| Int) (|O_21| Int) (|P_21| Int) (|Q_21| Int) (|R_21| Int) (|S_21| Int) (|T_21| Int) (|U_21| Int) (|V_21| Int) (|W_21| Int) (|X_21| Int) (|Y_21| Int) (|J1_2| Int) (|A1_21| Int) (|B1_21| Int) (|K1_0| Int) (|L1_0| Int) (|M1_0| Int) (|F1_21| Int) (|G1_21| Bool) (|.loc.5| Bool) (|.loc.6| Bool) (|.loc.7| Bool) (|.loc.8| Bool) (|H1_0| (Array Int Int)) (|.x.949| Int) (|.x.947| (Array Int Int)) (|.x.945| Int) (|.x.943| (Array Int Int)) (|.x.939| Int) (|.x.941| (Array Int Int)) (|.x.959| Int) (|.x.964| Int) (|.x.971| Bool) (|.x.940| (Array Int Int)) (|.x.952| Int) (|.x.962| Int) (|.x.965| Int) (|.x.966| Int) (|.x.951| Int) (|.x.967| Int) (|.x.968| Int) (|.x.969| Int) (|.x.963| Int) (|.x.960| Int) (|.loc.10| Bool) (|.loc.11| Bool) (|.loc.12| Bool) (|.loc.9| Bool) (|.x.961| Int) (|.x.957| Int) (|.x.970| Int) (|.x.942| (Array Int Int)) (|.x.958| Int) (|.x.946| (Array Int Int)) (|.x.944| Int) (|.x.948| Int) (|.x.950| Int) (|.x.953| Int) (|.x.954| Int) (|.x.955| Int) (|.x.956| Int) (|.xtv.1| (Array Int Int))) (=> (and (and (and .loc.7 (and .loc.5 .loc.6)) (not .loc.8)) (and (and (and (and (and (= D_21 E_21) (not G1_21)) (= F_21 G_21)) (= J_21 K_21)) (= H_21 I_21)) (= H1_11 C_21))) (state |A_21| |H1_11| |C_21| |D_21| |E_21| |F_21| |G_21| |H_21| |I_21| |J_21| |K_21| |L_21| |I1_6| |N_21| |O_21| |P_21| |Q_21| |R_21| |S_21| |T_21| |U_21| |V_21| |W_21| |X_21| |Y_21| |J1_2| |A1_21| |B1_21| |K1_0| |L1_0| |M1_0| |F1_21| |G1_21| |.loc.5| |.loc.6| |.loc.7| |.loc.8| |H1_0|))))
(assert (forall ((|A_21| Int) (|H1_11| (Array Int Int)) (|C_21| (Array Int Int)) (|D_21| (Array Int Int)) (|E_21| (Array Int Int)) (|F_21| Int) (|G_21| Int) (|H_21| (Array Int Int)) (|I_21| (Array Int Int)) (|J_21| Int) (|K_21| Int) (|L_21| Int) (|I1_6| Int) (|N_21| Int) (|O_21| Int) (|P_21| Int) (|Q_21| Int) (|R_21| Int) (|S_21| Int) (|T_21| Int) (|U_21| Int) (|V_21| Int) (|W_21| Int) (|X_21| Int) (|Y_21| Int) (|J1_2| Int) (|A1_21| Int) (|B1_21| Int) (|K1_0| Int) (|L1_0| Int) (|M1_0| Int) (|F1_21| Int) (|G1_21| Bool) (|.loc.5| Bool) (|.loc.6| Bool) (|.loc.7| Bool) (|.loc.8| Bool) (|H1_0| (Array Int Int)) (|.x.949| Int) (|.x.947| (Array Int Int)) (|.x.945| Int) (|.x.943| (Array Int Int)) (|.x.939| Int) (|.x.941| (Array Int Int)) (|.x.959| Int) (|.x.964| Int) (|.x.971| Bool) (|.x.940| (Array Int Int)) (|.x.952| Int) (|.x.962| Int) (|.x.965| Int) (|.x.966| Int) (|.x.951| Int) (|.x.967| Int) (|.x.968| Int) (|.x.969| Int) (|.x.963| Int) (|.x.960| Int) (|.loc.10| Bool) (|.loc.11| Bool) (|.loc.12| Bool) (|.loc.9| Bool) (|.x.961| Int) (|.x.957| Int) (|.x.970| Int) (|.x.942| (Array Int Int)) (|.x.958| Int) (|.x.946| (Array Int Int)) (|.x.944| Int) (|.x.948| Int) (|.x.950| Int) (|.x.953| Int) (|.x.954| Int) (|.x.955| Int) (|.x.956| Int) (|.xtv.1| (Array Int Int))) (=> (and (state |A_21| |H1_11| |C_21| |D_21| |E_21| |F_21| |G_21| |H_21| |I_21| |J_21| |K_21| |L_21| |I1_6| |N_21| |O_21| |P_21| |Q_21| |R_21| |S_21| |T_21| |U_21| |V_21| |W_21| |X_21| |Y_21| |J1_2| |A1_21| |B1_21| |K1_0| |L1_0| |M1_0| |F1_21| |G1_21| |.loc.5| |.loc.6| |.loc.7| |.loc.8| |H1_0|) (let ((.def_50 (not .loc.8))) (let ((.def_95 (= N_21 .x.952))) (let ((.def_98 (= X_21 .x.962))) (let ((.def_101 (= A1_21 .x.965))) (let ((.def_104 (= B1_21 .x.966))) (let ((.def_106 (= G1_21 .x.971))) (let ((.def_111 (= .x.952 0))) (let ((.def_114 (not .loc.7))) (let ((.def_123 (select D_21 L1_0))) (let ((.def_128 (<= Q_21 Y_21))) (let ((.def_129 (not .def_128))) (let ((.def_142 (select D_21 I1_6))) (let ((.def_144 (select .def_142 (+ (* 4 Y_21) (+ K1_0 (* 4 (* Q_21 S_21))))))) (let ((.def_147 (or G1_21 (and (and (and (= .x.966 (select .def_123 (+ (* 4 S_21) (+ M1_0 (* 4 (* Q_21 Y_21)))))) (and (= .x.952 .x.965) .def_129)) (= .x.965 (ite (= .x.962 .x.966) 1 0))) (= .x.962 .def_144))))) (let ((.def_149 (= H1_11 .x.940))) (let ((.def_152 (= I1_6 .x.951))) (let ((.def_154 (= U_21 .x.959))) (let ((.def_156 (= J1_2 .x.964))) (let ((.def_159 (= K1_0 .x.967))) (let ((.def_162 (= L1_0 .x.968))) (let ((.def_165 (= M1_0 .x.969))) (let ((.def_169 (= Y_21 .x.963))) (let ((.def_171 (= V_21 .x.960))) (let ((.def_181 (not .loc.9))) (let ((.def_196 (not .loc.12))) (let ((.def_198 (not .loc.11))) (let ((.def_200 (not .loc.10))) (let ((.def_202 (not .loc.5))) (let ((.def_207 (= (+ Y_21 (* (- 1) .x.963)) (- 1)))) (let ((.def_208 (or .x.971 .def_207))) (let ((.def_211 (and G1_21 .def_95))) (let ((.def_233 (and .def_95 .def_171))) (let ((.def_234 (and .def_98 .def_233))) (let ((.def_238 (and .def_106 (and .def_104 (and .def_101 (and .def_169 .def_234)))))) (let ((.def_253 (<= Q_21 S_21))) (let ((.def_254 (or G1_21 .def_253))) (let ((.def_275 (= .x.963 0))) (let ((.def_277 (or G1_21 (and (not .def_253) .def_275)))) (let ((.def_281 (= W_21 .x.961))) (let ((.def_283 (= S_21 .x.957))) (let ((.def_285 (not .loc.6))) (let ((.def_306 (or G1_21 (= (+ S_21 (* (- 1) .x.957)) (- 1))))) (let ((.def_309 (= .x.957 0))) (let ((.def_312 (and .def_98 (and .def_233 .def_281)))) (let ((.def_316 (and .def_106 (and .def_104 (and .def_101 (and .def_169 .def_312)))))) (let ((.def_341 (and .def_106 (and .def_104 (and .def_101 (and .def_169 (and .def_98 (and .def_281 (and .def_171 (and .def_211 .def_283)))))))))) (let ((.def_342 (and .loc.5 .def_341))) (let ((.def_361 (and .def_98 (and .def_281 (and .def_171 (and .def_95 .def_283)))))) (let ((.def_365 (and .def_106 (and .def_104 (and .def_101 (and .def_169 .def_361)))))) (let ((.def_366 (and .loc.5 .def_365))) (let ((.def_381 (or G1_21 .def_128))) (let ((.def_534 (= F1_21 .x.970))) (let ((.def_536 (= D_21 .x.942))) (let ((.def_565 (and G1_21 .def_536))) (let ((.def_592 (and .def_95 .def_536))) (let ((.def_596 (and .def_98 (and .def_281 (and .def_171 (and .def_283 .def_592)))))) (let ((.def_641 (= T_21 .x.958))) (let ((.def_669 (= H_21 .x.946))) (let ((.def_671 (= F_21 .x.944))) (let ((.def_674 (= J_21 .x.948))) (let ((.def_677 (= L_21 .x.950))) (let ((.def_678 (and (and (and .def_669 .def_671) .def_674) .def_677))) (let ((.def_680 (= O_21 .x.953))) (let ((.def_683 (= P_21 .x.954))) (let ((.def_686 (= Q_21 .x.955))) (let ((.def_689 (= R_21 .x.956))) (let ((.def_724 (store H1_0 .x.951 1))) (let ((.def_800 (and .def_98 (and .def_281 (and .def_171 (and .def_641 (and .def_283 (and .def_689 (and .def_686 (and .def_683 (and .def_680 (and .def_95 (and .def_677 (and .def_674 (and .def_669 (and .def_536 .def_671)))))))))))))))) (and (and (= K_21 .x.949) (and (= I_21 .x.947) (and (= G_21 .x.945) (and (= E_21 .x.943) (and (= A_21 .x.939) (= C_21 .x.941)))))) (or (or (or (or (or (and (or (and (or (or (or (or (and (or (or (or (or (or (or (or (or (or (or (or (or (and (or (or (or (or (and (or (and .loc.8 (and .loc.7 (and (or (= .x.959 .x.964) .x.971) (and (and (and (and (and (or G1_21 (and (= (store (store H1_11 I1_6 0) L1_0 0) .x.940) (= .x.964 0))) .def_95) .def_98) .def_101) .def_104) .def_106)))) (and (and (and (and (and (and (and (and (and (or G1_21 .def_111) (and (and .def_50 .x.971) .def_114)) .def_147) .def_149) .def_152) .def_154) .def_156) .def_159) .def_162) .def_165)) (and (and (and (and (and .loc.5 (and .def_169 .def_171)) .loc.10) .loc.11) .loc.12) .def_181)) (and (and (and (and (and (and .def_165 (and .def_162 (and .def_159 (and .def_156 (and .def_154 (and .def_152 (and .def_149 (and .def_114 (and .def_50 (and .loc.9 (and .def_106 (and .def_95 .def_101)))))))))))) .def_196) .def_198) .def_200) .def_202) .def_208)) (and .def_202 (and .def_200 (and .def_165 (and .def_162 (and .def_159 (and .def_156 (and .def_154 (and .def_152 (and .def_149 (and .loc.12 (and .loc.11 (and .loc.9 (and .loc.8 (and .loc.7 (and .def_106 (and .def_104 (and .def_101 (and .def_169 (and .def_98 (and .def_171 .def_211))))))))))))))))))))) (and (and .def_202 (and .def_200 (and .def_165 (and .def_162 (and .def_159 (and .def_156 (and .def_154 (and .def_152 (and .def_149 (and .loc.12 (and .loc.11 (and .loc.9 (and .loc.8 (and .loc.7 .def_238)))))))))))))) .def_254)) (and (and .def_202 (and .def_200 (and .def_198 (and .def_196 (and .def_165 (and .def_162 (and .def_159 (and .def_156 (and .def_154 (and .def_152 (and .def_149 (and .loc.9 (and .loc.8 (and .loc.7 (and .def_106 (and .def_104 (and .def_101 .def_234))))))))))))))))) .def_277)) (and (and .def_281 .def_283) .def_285)) (and (and .def_202 (and .def_200 (and .def_165 (and .def_162 (and .def_159 (and .def_156 (and .def_154 (and .def_152 (and .def_149 (and .def_114 (and .def_50 (and .def_181 (and .loc.12 (and .loc.11 (and .loc.6 .def_238))))))))))))))) .def_306)) (and (or G1_21 .def_309) (and .def_200 (and .def_165 (and .def_162 (and .def_159 (and .def_156 (and .def_154 (and .def_152 (and .def_149 (and .def_114 (and .def_181 (and .loc.12 (and .loc.11 (and .loc.8 (and .loc.6 (and .loc.5 .def_316))))))))))))))))) (and .def_198 (and .def_196 (and .def_165 (and .def_162 (and .def_159 (and .def_156 (and .def_154 (and .def_152 (and .def_149 (and .def_114 (and .def_50 (and .def_181 (and .loc.10 (and .def_285 .def_342))))))))))))))) (and (and .def_198 (and .def_196 (and .def_165 (and .def_162 (and .def_159 (and .def_156 (and .def_154 (and .def_152 (and .def_149 (and .def_114 (and .def_50 (and .def_181 (and .loc.10 (and .def_285 .def_366)))))))))))))) .def_381)) (and (or .x.971 (not .def_111)) (and .def_200 (and .def_198 (and .def_196 (and .def_165 (and .def_162 (and .def_159 (and .def_156 (and .def_154 (and .def_152 (and .def_149 (and .def_147 (and .def_114 (and .def_50 (and .def_181 (and .def_285 (and .loc.5 (and .def_106 (and .def_169 (and .def_281 (and .def_171 .def_283)))))))))))))))))))))) (and .def_200 (and .def_198 (and .def_196 (and .def_165 (and .def_162 (and .def_159 (and .def_156 (and .def_154 (and .def_152 (and .def_149 (and .def_147 (and .def_114 (and .def_50 (and .def_181 (and .def_285 (and .loc.5 (and .def_169 (and .def_281 (and .def_171 (and .def_283 (and G1_21 .x.971)))))))))))))))))))))) (and .def_202 (and .def_198 (and .def_165 (and .def_162 (and .def_159 (and .def_156 (and .def_154 (and .def_152 (and .def_149 (and .def_114 (and .loc.12 (and .loc.10 (and .loc.9 (and .loc.8 (and .loc.6 .def_341)))))))))))))))) (and .def_254 (and .def_202 (and .def_198 (and .def_165 (and .def_162 (and .def_159 (and .def_156 (and .def_154 (and .def_152 (and .def_149 (and .def_114 (and .loc.12 (and .loc.10 (and .loc.9 (and .loc.8 (and .loc.6 .def_365))))))))))))))))) (and .def_306 (and .def_202 (and .def_198 (and .def_165 (and .def_162 (and .def_159 (and .def_156 (and .def_154 (and .def_152 (and .def_149 (and .def_50 (and .def_181 (and .loc.12 (and .loc.10 (and .def_285 (and .loc.7 .def_316))))))))))))))))) (and (or G1_21 (and .def_275 .def_309)) (and .def_198 (and .def_165 (and .def_162 (and .def_159 (and .def_156 (and .def_154 (and .def_152 (and .def_149 (and .def_114 (and .def_181 (and .loc.12 (and .loc.10 (and .def_285 (and .loc.8 (and .loc.5 (and .def_106 (and .def_104 (and .def_101 .def_312)))))))))))))))))))) (and .def_200 (and .def_196 (and .def_165 (and .def_162 (and .def_159 (and .def_156 (and .def_154 (and .def_152 (and .def_149 (and .def_114 (and .def_50 (and .def_181 (and .loc.11 (and .loc.6 .def_342))))))))))))))) (and .def_381 (and .def_200 (and .def_196 (and .def_165 (and .def_162 (and .def_159 (and .def_156 (and .def_154 (and .def_152 (and .def_149 (and .def_114 (and .def_50 (and .def_181 (and .loc.11 (and .loc.6 .def_366)))))))))))))))) (and .def_534 .def_536)) (and (or G1_21 (and (= .x.942 (store D_21 L1_0 (store .def_123 (+ (* 4 S_21) (+ M1_0 (* 4 (* Q_21 Y_21)))) .def_144))) (and .def_129 .def_207))) (and .def_198 (and .def_196 (and .def_165 (and .def_162 (and .def_159 (and .def_156 (and .def_154 (and .def_152 (and .def_149 (and .def_114 (and .def_50 (and .loc.10 (and .loc.9 (and .loc.6 (and .loc.5 (and .def_106 (and .def_104 (and .def_101 .def_361)))))))))))))))))))) (and .def_202 (and .def_200 (and .def_198 (and .def_165 (and .def_162 (and .def_159 (and .def_156 (and .def_154 (and .def_152 (and .def_149 (and .def_114 (and .loc.12 (and .loc.9 (and .def_285 (and .loc.8 (and .def_106 (and .def_534 (and .def_104 (and .def_101 (and .def_169 (and .def_98 (and .def_281 (and .def_171 (and .def_283 (and .def_95 .def_565)))))))))))))))))))))))))) (and .def_254 (and .def_202 (and .def_200 (and .def_198 (and .def_165 (and .def_162 (and .def_159 (and .def_156 (and .def_154 (and .def_152 (and .def_149 (and .def_114 (and .loc.12 (and .loc.9 (and .def_285 (and .loc.8 (and .def_106 (and .def_534 (and .def_104 (and .def_101 (and .def_169 .def_596)))))))))))))))))))))) (and .def_277 (and .def_202 (and .def_198 (and .def_196 (and .def_165 (and .def_162 (and .def_159 (and .def_156 (and .def_154 (and .def_152 (and .def_149 (and .def_114 (and .loc.10 (and .loc.9 (and .loc.8 (and .loc.6 (and .def_106 (and .def_534 (and .def_104 (and .def_101 .def_596))))))))))))))))))))) .def_641) (and .def_306 (and .def_202 (and .def_200 (and .def_198 (and .def_165 (and .def_162 (and .def_159 (and .def_156 (and .def_154 (and .def_152 (and .def_149 (and .def_50 (and .def_181 (and .loc.12 (and .loc.7 (and .loc.6 (and .def_106 (and .def_534 (and .def_104 (and .def_101 (and .def_169 (and .def_98 (and .def_281 (and .def_171 .def_592))))))))))))))))))))))))) (and (and (and (and .def_678 .def_680) .def_683) .def_686) .def_689)) (and (or G1_21 (and (and (= .x.948 0) (= .x.944 0)) (= H1_0 (store H1_11 0 0)))) (and (or .x.971 (and (and (and (and (and (and (and (and (and .def_309 (and (and (and (not (<= .x.939 .x.968)) (not (<= .x.939 .x.951))) (= .x.954 1800)) (= .x.955 1000))) (= .x.969 0)) (not (= .x.951 0))) (not (= .x.968 0))) (= .x.967 0)) (= (select H1_0 .x.951) 0)) (= (select .def_724 .x.968) 0)) (= .x.946 (store (store H_21 .x.951 (* 4 (* .x.955 .x.955))) .x.968 (* 4 (* .x.955 .x.955))))) (= .x.940 (store .def_724 .x.968 1)))) (and .def_200 (and .def_198 (and .def_154 (and .def_50 (and .def_181 (and .loc.12 (and .loc.7 (and .loc.6 (and .loc.5 (and .def_106 (and .def_101 .def_592)))))))))))))) (and .def_196 (and .def_165 (and .def_162 (and .def_159 (and .def_156 (and .def_154 (and .def_152 (and .def_149 (and .def_50 (and .def_181 (and .loc.11 (and .loc.10 (and .def_285 (and .loc.7 (and .loc.5 (and .def_106 (and .def_534 (and .def_104 (and .def_101 (and .def_169 (and .def_98 (and .def_281 (and .def_171 (and .def_641 (and .def_283 (and .def_689 (and .def_686 (and .def_683 (and .def_680 (and .def_95 (and .def_677 (and .def_674 (and .def_669 (and .def_565 .def_671))))))))))))))))))))))))))))))))))) (and .def_381 (and .def_196 (and .def_165 (and .def_162 (and .def_159 (and .def_156 (and .def_154 (and .def_152 (and .def_149 (and .def_50 (and .def_181 (and .loc.11 (and .loc.10 (and .def_285 (and .loc.7 (and .loc.5 (and .def_106 (and .def_534 (and .def_104 (and .def_101 (and .def_169 .def_800)))))))))))))))))))))) (and (or G1_21 (and (= .x.942 (store D_21 I1_6 (store .def_142 (+ (* 4 Y_21) (+ K1_0 (* 4 (* Q_21 S_21)))) O_21))) (and (<= (- 2147483648) O_21) (and .def_129 (<= O_21 2147483647))))) (and .def_208 (and .def_200 (and .def_196 (and .def_165 (and .def_162 (and .def_159 (and .def_156 (and .def_154 (and .def_152 (and .def_149 (and .def_50 (and .loc.11 (and .loc.9 (and .def_285 (and .loc.7 (and .loc.5 (and .def_106 (and .def_534 (and .def_104 (and .def_101 (and .def_98 (and .def_281 (and .def_171 (and .def_641 (and .def_283 (and .def_686 (and .def_683 (and .def_95 .def_678)))))))))))))))))))))))))))))) (and .def_277 (and .def_202 (and .def_200 (and .def_196 (and .def_165 (and .def_162 (and .def_159 (and .def_156 (and .def_154 (and .def_152 (and .def_149 (and .def_114 (and .loc.11 (and .loc.9 (and .def_285 (and .loc.8 (and .def_106 (and .def_534 (and .def_104 (and .def_101 .def_800))))))))))))))))))))))))))))))))))))))))))))))))))))))))))))))))))))))))))))))))))))))))))) (state |.x.939| |.x.940| |.x.941| |.x.942| |.x.943| |.x.944| |.x.945| |.x.946| |.x.947| |.x.948| |.x.949| |.x.950| |.x.951| |.x.952| |.x.953| |.x.954| |.x.955| |.x.956| |.x.957| |.x.958| |.x.959| |.x.960| |.x.961| |.x.962| |.x.963| |.x.964| |.x.965| |.x.966| |.x.967| |.x.968| |.x.969| |.x.970| |.x.971| |.loc.9| |.loc.10| |.loc.11| |.loc.12| |.xtv.1|))))
(assert (forall ((|A_21| Int) (|H1_11| (Array Int Int)) (|C_21| (Array Int Int)) (|D_21| (Array Int Int)) (|E_21| (Array Int Int)) (|F_21| Int) (|G_21| Int) (|H_21| (Array Int Int)) (|I_21| (Array Int Int)) (|J_21| Int) (|K_21| Int) (|L_21| Int) (|I1_6| Int) (|N_21| Int) (|O_21| Int) (|P_21| Int) (|Q_21| Int) (|R_21| Int) (|S_21| Int) (|T_21| Int) (|U_21| Int) (|V_21| Int) (|W_21| Int) (|X_21| Int) (|Y_21| Int) (|J1_2| Int) (|A1_21| Int) (|B1_21| Int) (|K1_0| Int) (|L1_0| Int) (|M1_0| Int) (|F1_21| Int) (|G1_21| Bool) (|.loc.5| Bool) (|.loc.6| Bool) (|.loc.7| Bool) (|.loc.8| Bool) (|H1_0| (Array Int Int)) (|.x.949| Int) (|.x.947| (Array Int Int)) (|.x.945| Int) (|.x.943| (Array Int Int)) (|.x.939| Int) (|.x.941| (Array Int Int)) (|.x.959| Int) (|.x.964| Int) (|.x.971| Bool) (|.x.940| (Array Int Int)) (|.x.952| Int) (|.x.962| Int) (|.x.965| Int) (|.x.966| Int) (|.x.951| Int) (|.x.967| Int) (|.x.968| Int) (|.x.969| Int) (|.x.963| Int) (|.x.960| Int) (|.loc.10| Bool) (|.loc.11| Bool) (|.loc.12| Bool) (|.loc.9| Bool) (|.x.961| Int) (|.x.957| Int) (|.x.970| Int) (|.x.942| (Array Int Int)) (|.x.958| Int) (|.x.946| (Array Int Int)) (|.x.944| Int) (|.x.948| Int) (|.x.950| Int) (|.x.953| Int) (|.x.954| Int) (|.x.955| Int) (|.x.956| Int) (|.xtv.1| (Array Int Int))) (=> (state |A_21| |H1_11| |C_21| |D_21| |E_21| |F_21| |G_21| |H_21| |I_21| |J_21| |K_21| |L_21| |I1_6| |N_21| |O_21| |P_21| |Q_21| |R_21| |S_21| |T_21| |U_21| |V_21| |W_21| |X_21| |Y_21| |J1_2| |A1_21| |B1_21| |K1_0| |L1_0| |M1_0| |F1_21| |G1_21| |.loc.5| |.loc.6| |.loc.7| |.loc.8| |H1_0|) (not (and G1_21 (and .loc.8 (and .loc.7 (and .loc.6 (not .loc.5)))))))))
(check-sat)
